Route #1: 59 32 8 23 37 65
Route #2: 7 20 11 50 14 4 46
Route #3: 19 35 49 1 6 34 64
Route #4: 60 3 57 30 61 62
Route #5: 53 40 44 42 36 39
Route #6: 51 24 29 10 38 17
Route #7: 16 43 27 41 66 2 26 47
Route #8: 33 18 31 58 13 28
Route #9: 5 63 21 25 48 9
Route #10: 15 56 55 54 22 52 45 12
Cost 1091